 &CONTROL
                       title = 'BN' ,
                 calculation = 'scf' ,
                  wf_collect = .true. ,
                      outdir = './dft/out/' ,
                  pseudo_dir = './dft/' ,
                      prefix = 'bn' ,
 /
 &SYSTEM
                       ibrav = 0,
                   celldm(1) = 1,
                         nat = 2,
                        ntyp = 2,
                     ecutwfc = 20 ,
                     noncolin = .false. ,
 /
 &ELECTRONS
 /
CELL_PARAMETERS alat
     4.107742289   -2.371606116    0.000000000
     4.107742289    2.371606116    0.000000000
     0.000000000    0.000000000   20.000000000
ATOMIC_SPECIES
    B   10.81100  B_ONCV_PBE-1.0.upf
    N   14.00700  N_ONCV_PBE-1.0.upf
ATOMIC_POSITIONS crystal
    N      0.000000000    0.000000000    0.000000000
    B      0.333333333    0.333333333    0.000000000
K_POINTS automatic
  12 12 1   1 1 0
  








